NAME : cgl_32.4035.tour
COMMENT : Length = 4035
COMMENT : Found by LKH-3 [Keld Helsgaun] Fri Nov  8 17:38:18 2024
TYPE : TOUR
DIMENSION : 33
TOUR_SECTION
25
27
26
6
5
4
28
32
1
29
31
30
3
2
33
19
8
15
9
12
14
21
7
18
16
13
10
11
20
17
22
23
24
-1
EOF
